

*************************************************************

   NEOS Server Version 6.0
   Job#     : 18279513
   Password : uTNxYMWf
   User     : 
   Solver   : milp:Gurobi:AMPL
   Start    : 2026-01-25 06:19:55
   End      : 2026-01-25 06:19:57
   Host     : prod-sub-1.neos-server.org

   Disclaimer:

   This information is provided without any express or
   implied warranty. In particular, there is no warranty
   of any kind concerning the fitness of this
   information for any particular purpose.

   Announcements:
*************************************************************
You are using the solver gurobi_ampl.
Checking ampl.mod for gurobi_options...
Checking ampl.com for gurobi_options...
Executing AMPL.
processing data.
processing commands.
Executing on prod-exec-1.neos-server.org
N = 5


"option presolve 0;" used, but "option presolve 10;" might work better.
5 variables, all nonlinear
0 algebraic constraints
3 logical constraints
1 linear objective; 5 nonzeros.

Gurobi 12.0.3:   tech:threads = 4
  pre:solve = 2
  alg:iisfind = 1
Set parameter LogToConsole to value 1
  tech:outlev = 1

AMPL MP initial flat model has 5 variables (5 integer, 0 binary);
Objectives: 1 linear; 
Constraints:  10 linear;
Logical expressions:  3 alldiff;

AMPL MP final model has 94 variables (18 integer, 75 binary);
Objectives: 1 linear; 
Constraints:  53 linear;


Set parameter InfUnbdInfo to value 1
Gurobi Optimizer version 12.0.3 build v12.0.3rc0 (linux64 - "Rocky Linux 8.10 (Green Obsidian)")

CPU model: Intel(R) Xeon(R) CPU E5-2698 v3 @ 2.30GHz, instruction set [SSE2|AVX|AVX2]
Thread count: 32 physical cores, 64 logical processors, using up to 4 threads

Non-default parameters:
InfUnbdInfo  1
Presolve  2
Threads  4

Optimize a model with 53 rows, 94 columns and 251 nonzeros
Model fingerprint: 0x388d9085
Variable types: 14 continuous, 80 integer (0 binary)
Coefficient statistics:
  Matrix range     [1e+00, 1e+01]
  Objective range  [0e+00, 0e+00]
  Bounds range     [1e+00, 6e+00]
  RHS range        [1e+00, 5e+00]
Presolve removed 25 rows and 67 columns
Presolve time: 0.00s
Presolved: 28 rows, 27 columns, 135 nonzeros
Variable types: 0 continuous, 27 integer (25 binary)
Found heuristic solution: objective 0.0000000

Explored 0 nodes (0 simplex iterations) in 0.00 seconds (0.00 work units)
Thread count was 4 (of 64 available processors)

Solution count 1: 0 

Optimal solution found (tolerance 1.00e-04)
Best objective 0.000000000000e+00, best bound 0.000000000000e+00, gap 0.0000%
Gurobi 12.0.3: optimal solution; objective 0
0 simplex iterations
Solution
========
 1  4
 2  1
 3  3
 4  5
 5  2

NEOS Server Home
